\* FantasyTeam *\
Maximize
OBJ: 2 x0 + 134 x1 + 32 x10 + 132 x100 + 105 x101 + 123.809103569 x102
 + 224 x103 + 121 x104 + 114 x105 + 105 x106 + 6 x107 + 162 x108 + 3 x109
 + 90 x11 + 83 x110 + 12 x111 + 48 x112 + 196 x113 + 92 x114
 + 9.05047261426 x115 + 75 x116 + 61 x117 + 86 x118 + 46 x119
 + 154.860625123 x12 + 51 x120 + 6 x121 + 47 x122 + 98 x123 + 92 x124
 + 149 x125 + 93 x126 + 24 x127 + 91 x128 + 7 x129 + 264 x13 + 116 x130
 + 42 x131 + 18 x132 + 136 x133 + 102 x134 + 89 x135 + 68 x136 + 135 x137
 + 133 x138 + 104 x139 + 122 x14 + 9 x140 + 69 x141 + 127 x142 + 54 x143
 + x144 + 113 x145 + 45 x146 + 119 x147 + 144 x148 + 23 x149 + 167 x15
 + 68 x150 + 40.2648583247 x151 + 22 x152 + 37 x153 + 80 x154 + 63 x155
 + 16 x156 + 137.316699212 x157 + 17 x158 + 133.782999257 x159 + 38 x16
 + 76 x160 + 8.28266072919 x161 + 93.7879995521 x162 + 38.9928232508 x163
 + 46.0535047329 x164 + 85.5376011459 x165 + 36.5151227678 x166
 + 17.5738220771 x167 + 10.317149848 x168 + 9.4228773278 x169 + 56 x17
 + 66.0145891695 x170 + 82.9441055203 x171 + 64.562794079 x172
 + 51.4847112233 x173 + 51.8660888677 x174 + 46.9208973036 x175
 + 44.2513109357 x176 + 36.8484954332 x177 + 30.9797408645 x178
 + 32.8203794918 x179 + 83 x18 + 110.541422431 x180 + 118.733186631 x181
 + 84.2905523377 x182 + 71.8074034381 x183 + 37.6631233024 x184
 + 12.1881334944 x185 + 48.8365925498 x186 + 71.6033528433 x187 + 109 x188
 + 118.586956209 x189 + 52 x19 + 63 x190 + 104 x191 + 85 x192 + 88 x193
 + 27 x194 + 19 x195 + 46.1283403288 x196 + 71 x197 + 120 x198 + 95 x199
 + 8 x2 + 89 x20 + 41 x200 + 69 x201 + 58 x202 + 53 x203 + 6 x204 + 59 x205
 + 39 x206 + 99.3362156017 x207 + 161 x208 + 24 x209 + 26 x21 + 63 x210
 + 83 x211 + 110 x212 + 32 x213 + 106 x214 + 15 x215 + 129 x216
 + 85.2349949057 x217 + 97 x218 + 43 x219 + 85 x22 + 35 x220 + 139 x221
 + 8 x222 + 47 x223 + 73 x224 + 171 x225 + 104 x226 + 139 x227
 + 73.9082548997 x228 + 156 x229 + 61 x23 + 4 x230 + 149 x231 + 5 x232
 + 171 x233 + 180 x234 + 54 x235 + 43.766260843 x236 + 96 x237
 + 48.8491444623 x238 + 141.148141175 x239 + 116 x24 + 73 x240 + 59 x241
 + 95 x242 + 57 x243 + 100 x244 + 13 x245 + 149 x246 + 130 x247 + 86 x248
 + 78 x249 + 37 x25 + 18 x250 + 199 x251 + 41 x252 + 54 x253 + 105 x254
 + 160.547291269 x255 + 175 x256 + 52 x257 + 67 x258 + 136 x259 + 20 x26
 + 23 x260 + 6 x261 + 52 x262 + 55 x263 + 45 x264 + 77 x265 + 120 x266
 + 70 x267 + 9 x268 + 98 x269 + 67 x27 + 105 x270 + 14 x271
 + 116.31166992 x272 + 102 x273 + 48 x274 + 42 x275 + 26 x276 + 97 x277
 + 60 x278 + 95 x279 + 2 x28 + 73 x280 + 115 x281 + 3 x282 + 76 x283
 + 221 x284 + 7.44295238626 x285 + 129.833259219 x286 + 43.4317431868 x287
 + 36.9308179892 x288 + 35.2507159347 x289 + 120 x29 + 43.4277946713 x290
 + 10.2048340782 x291 + 14.9753599769 x292 + 49.6891212639 x293
 + 98.9124032539 x294 + 87.997585112 x295 + 57.2689715725 x296
 + 72.6701739545 x297 + 52.5473273159 x298 + 75.4217561905 x299 + 121 x3
 + 8 x30 + 124.127978589 x300 + 50.0331710246 x301 + 45.4713295947 x302
 + 12.4194856919 x303 + 134.880294189 x304 + 134 x305 + 123 x306 + 78 x307
 + 12 x308 + 102 x309 + 89 x31 + 75 x310 + 5 x311 + 60 x312 + 23 x313
 + 41.9047142015 x314 + 77 x315 + 92 x316 + 108 x317 + 38 x318 + 80 x319
 + 112 x32 + 38 x320 + 40 x321 + 12 x322 + 126 x323 + 57 x324 + 62 x325
 + 38 x326 + 20 x327 + 106 x328 + 94 x329 + 134 x33 + 58 x330 + 103 x331
 + 34 x332 + 27 x333 + 56 x334 + 9 x335 + 118 x336 + 59 x337 + 62 x338
 + 117 x339 + 104 x34 + 15 x340 + 80 x341 + 24 x342 + 30 x343 + 36 x344
 + 103 x345 + 79 x346 + 51 x347 + 26 x348 + 116 x349 + 4 x35 + 3 x350
 + 82 x351 + 26 x352 + 63 x353 + 29 x354 + 16 x355 + 94 x356 + 52 x357
 + 181 x358 + 74 x359 + 4 x36 + 32 x360 + 19 x361 + 41 x362 + 18 x363
 + 95 x364 + 12 x365 + 52 x366 + 34 x367 + 25 x368 + 29.7225848985 x369
 + 55 x37 + 146 x370 + 5 x371 + 39 x372 + 49.7073022009 x373 + 143 x374
 + 17 x375 + 120 x376 + 84 x377 + 142 x378 + 126 x379 + 84 x38 + 90 x380
 + 51 x381 + 2 x382 + 93 x383 + 76 x384 + 28 x385 + 218 x386 + 225 x387
 + 103 x388 + 174 x389 + 64 x39 + 30 x390 + 8 x391 + 43 x392 + 224 x393
 + 55 x394 + 2 x395 + 113 x396 + 57 x397 + 31 x398 + 67 x399 + x4 + 44 x40
 + 87 x400 + 71 x401 + 35 x402 + 50 x403 + 15 x404 + x405 + 40.8624083883 x406
 + 55 x407 + 131 x408 + 48 x409 + 107 x41 + 55.936583209 x410 + 65 x411
 + 28 x412 + 38 x413 + 43 x414 + 66.5886518867 x415 + 130 x416 + 43 x417
 + 8 x418 + 7.73224600527 x419 + 49 x42 + 113 x420 + 74 x421 + 79 x422
 + 102 x423 + 131 x424 + 77 x425 + 110 x426 + 84 x427 + 54 x428 + 52 x429
 + 8 x43 + 12 x430 + 115 x431 + 9 x432 + 99 x433 + 118 x434 + 52 x435
 + 73 x436 + 64 x437 + 69 x438 + 98 x439 + 36 x44 + 69 x440 + 102 x441
 + 60 x442 + 45 x443 + 29 x444 + 34 x445 + 45 x446 + 133 x447 + 89 x448
 + 71 x449 + 17 x45 + 79 x450 + 55 x451 + 133 x452 + 132 x453 + 55 x454
 + 38 x455 + 69 x456 + 12 x457 + 16 x458 + 54 x459 + 100 x46
 + 48.556470421 x460 + 42.8577867284 x461 + 63.4691937251 x462 + 31 x463
 + 13.0619044611 x464 + 68.0672128728 x465 + 35.873591492 x466
 + 63.1185047937 x467 + 127.532667238 x468 + 106.754135525 x469 + 63 x47
 + 55.6347078234 x470 + 196 x471 + 86 x472 + x473 + 73 x474
 + 66.4259698244 x475 + 38 x476 + 95.9000062653 x477 + 90.9640923165 x478
 + 83 x479 + 88 x48 + 82.0102973568 x480 + 82.1382471129 x481
 + 114.484375877 x482 + 161.585125448 x483 + 52.4112205378 x484 + x485
 + 71.0165845969 x486 + 59.5503762105 x487 + 90.4043313805 x488
 + 103.954233746 x489 + 14 x49 + 31.055169334 x490 + 87.3157976911 x491
 + 93.5894814948 x492 + 10.6444553978 x493 + 79.4214674432 x494
 + 41.7220838843 x495 + 83.1994777582 x496 + 52.0853999972 x497 + 6 x498
 + 69.5438477781 x499 + 45 x5 + 178 x50 + 115.490277642 x500 + 166 x51
 + 8.45074504246 x52 + 100.815491159 x53 + 38.891417504 x54
 + 37.0872705146 x55 + 18.1810080703 x56 + 71.2778116457 x57
 + 61.4309435192 x58 + 13.3254597468 x59 + 119 x6 + 11.9549904185 x60
 + 103.620098963 x61 + 46.07696513 x62 + 43.7799150716 x63 + 33.9012267593 x64
 + 86.2379019826 x65 + 73.4339464309 x66 + 51.09662938 x67 + 97.3765502314 x68
 + 126.046314049 x69 + 45 x7 + 89.472159093 x70 + 32.5333602911 x71
 + 36.3801585043 x72 + 149 x73 + 5 x74 + 90 x75 + 94 x76 + 91 x77 + 23 x78
 + 3 x79 + 2 x8 + 56.9959359683 x80 + 69 x81 + 51 x82 + 47 x83 + 54 x84
 + 76 x85 + 39 x86 + 13 x87 + 72 x88 + 50 x89 + 115 x9 + 121 x90 + 108 x91
 + 81 x92 + 141 x93 + 94.4615635377 x94 + 64 x95 + 170 x96 + 178 x97 + 15 x98
 + 177 x99
Subject To
_C1: 50 x0 + 55 x1 + 50 x10 + 60 x100 + 65 x101 + 60 x102 + 105 x103 + 70 x104
 + 70 x105 + 50 x106 + 45 x107 + 80 x108 + 50 x109 + 55 x11 + 50 x110
 + 45 x111 + 85 x112 + 100 x113 + 45 x114 + 40 x115 + 45 x116 + 50 x117
 + 50 x118 + 45 x119 + 60 x12 + 45 x120 + 45 x121 + 50 x122 + 55 x123
 + 50 x124 + 70 x125 + 45 x126 + 45 x127 + 55 x128 + 50 x129 + 120 x13
 + 60 x130 + 50 x131 + 55 x132 + 80 x133 + 50 x134 + 45 x135 + 45 x136
 + 60 x137 + 65 x138 + 50 x139 + 75 x14 + 40 x140 + 50 x141 + 55 x142
 + 45 x143 + 45 x144 + 55 x145 + 65 x146 + 65 x147 + 75 x148 + 50 x149
 + 95 x15 + 45 x150 + 45 x151 + 55 x152 + 50 x153 + 50 x154 + 55 x155
 + 55 x156 + 75 x157 + 50 x158 + 75 x159 + 70 x16 + 75 x160 + 40 x161
 + 45 x162 + 45 x163 + 45 x164 + 50 x165 + 45 x166 + 40 x167 + 40 x168
 + 40 x169 + 70 x17 + 45 x170 + 55 x171 + 50 x172 + 45 x173 + 45 x174
 + 45 x175 + 45 x176 + 45 x177 + 45 x178 + 45 x179 + 60 x18 + 60 x180
 + 60 x181 + 55 x182 + 50 x183 + 50 x184 + 45 x185 + 55 x186 + 60 x187
 + 50 x188 + 45 x189 + 45 x19 + 45 x190 + 50 x191 + 45 x192 + 50 x193
 + 45 x194 + 45 x195 + 45 x196 + 50 x197 + 85 x198 + 55 x199 + 40 x2 + 55 x20
 + 45 x200 + 50 x201 + 55 x202 + 45 x203 + 45 x204 + 50 x205 + 65 x206
 + 60 x207 + 85 x208 + 50 x209 + 45 x21 + 55 x210 + 70 x211 + 50 x212
 + 50 x213 + 55 x214 + 45 x215 + 55 x216 + 45 x217 + 55 x218 + 45 x219
 + 55 x22 + 50 x220 + 65 x221 + 45 x222 + 45 x223 + 55 x224 + 90 x225
 + 50 x226 + 75 x227 + 50 x228 + 95 x229 + 55 x23 + 45 x230 + 70 x231
 + 45 x232 + 90 x233 + 85 x234 + 80 x235 + 55 x236 + 75 x237 + 50 x238
 + 55 x239 + 85 x24 + 50 x240 + 55 x241 + 55 x242 + 60 x243 + 55 x244
 + 45 x245 + 80 x246 + 80 x247 + 65 x248 + 50 x249 + 75 x25 + 45 x250
 + 100 x251 + 55 x252 + 70 x253 + 85 x254 + 80 x255 + 115 x256 + 70 x257
 + 105 x258 + 55 x259 + 75 x26 + 50 x260 + 40 x261 + 55 x262 + 50 x263
 + 50 x264 + 55 x265 + 65 x266 + 55 x267 + 45 x268 + 55 x269 + 105 x27
 + 60 x270 + 40 x271 + 55 x272 + 70 x273 + 50 x274 + 45 x275 + 50 x276
 + 55 x277 + 60 x278 + 80 x279 + 45 x28 + 80 x280 + 80 x281 + 45 x282
 + 75 x283 + 115 x284 + 40 x285 + 45 x286 + 45 x287 + 45 x288 + 45 x289
 + 45 x29 + 45 x290 + 40 x291 + 40 x292 + 45 x293 + 60 x294 + 55 x295
 + 50 x296 + 50 x297 + 45 x298 + 50 x299 + 60 x3 + 40 x30 + 65 x300 + 55 x301
 + 50 x302 + 45 x303 + 45 x304 + 50 x305 + 55 x306 + 50 x307 + 45 x308
 + 50 x309 + 45 x31 + 55 x310 + 45 x311 + 50 x312 + 45 x313 + 45 x314
 + 50 x315 + 55 x316 + 65 x317 + 45 x318 + 45 x319 + 50 x32 + 45 x320
 + 60 x321 + 45 x322 + 65 x323 + 60 x324 + 65 x325 + 70 x326 + 50 x327
 + 45 x328 + 50 x329 + 50 x33 + 45 x330 + 50 x331 + 45 x332 + 45 x333
 + 45 x334 + 45 x335 + 55 x336 + 50 x337 + 45 x338 + 70 x339 + 50 x34
 + 50 x340 + 60 x341 + 45 x342 + 55 x343 + 50 x344 + 50 x345 + 50 x346
 + 55 x347 + 60 x348 + 45 x349 + 45 x35 + 40 x350 + 45 x351 + 40 x352
 + 45 x353 + 45 x354 + 45 x355 + 50 x356 + 50 x357 + 85 x358 + 55 x359
 + 40 x36 + 45 x360 + 45 x361 + 50 x362 + 50 x363 + 55 x364 + 45 x365
 + 45 x366 + 50 x367 + 50 x368 + 45 x369 + 50 x37 + 75 x370 + 45 x371
 + 50 x372 + 55 x373 + 55 x374 + 50 x375 + 60 x376 + 65 x377 + 65 x378
 + 60 x379 + 50 x38 + 55 x380 + 55 x381 + 45 x382 + 50 x383 + 50 x384
 + 65 x385 + 95 x386 + 95 x387 + 50 x388 + 80 x389 + 50 x39 + 50 x390
 + 55 x391 + 55 x392 + 125 x393 + 75 x394 + 45 x395 + 45 x396 + 45 x397
 + 45 x398 + 45 x399 + 50 x4 + 45 x40 + 50 x400 + 45 x401 + 45 x402 + 50 x403
 + 40 x404 + 40 x405 + 45 x406 + 50 x407 + 55 x408 + 45 x409 + 60 x41
 + 50 x410 + 50 x411 + 55 x412 + 50 x413 + 60 x414 + 50 x415 + 65 x416
 + 55 x417 + 55 x418 + 40 x419 + 50 x42 + 45 x420 + 50 x421 + 50 x422
 + 50 x423 + 50 x424 + 50 x425 + 60 x426 + 55 x427 + 45 x428 + 50 x429
 + 50 x43 + 45 x430 + 60 x431 + 45 x432 + 55 x433 + 65 x434 + 50 x435
 + 60 x436 + 45 x437 + 45 x438 + 50 x439 + 50 x44 + 45 x440 + 50 x441
 + 50 x442 + 45 x443 + 45 x444 + 45 x445 + 50 x446 + 60 x447 + 70 x448
 + 55 x449 + 45 x45 + 50 x450 + 45 x451 + 70 x452 + 75 x453 + 55 x454
 + 45 x455 + 60 x456 + 55 x457 + 45 x458 + 50 x459 + 55 x46 + 45 x460
 + 45 x461 + 50 x462 + 45 x463 + 40 x464 + 50 x465 + 45 x466 + 45 x467
 + 45 x468 + 55 x469 + 60 x47 + 50 x470 + 100 x471 + 45 x472 + 45 x473
 + 50 x474 + 50 x475 + 45 x476 + 55 x477 + 45 x478 + 50 x479 + 60 x48
 + 55 x480 + 50 x481 + 55 x482 + 65 x483 + 45 x484 + 45 x485 + 70 x486
 + 55 x487 + 50 x488 + 55 x489 + 50 x49 + 45 x490 + 50 x491 + 50 x492
 + 40 x493 + 50 x494 + 45 x495 + 55 x496 + 45 x497 + 50 x498 + 50 x499 + 50 x5
 + 75 x50 + 60 x500 + 80 x51 + 40 x52 + 45 x53 + 45 x54 + 45 x55 + 40 x56
 + 45 x57 + 45 x58 + 40 x59 + 60 x6 + 40 x60 + 60 x61 + 45 x62 + 45 x63
 + 45 x64 + 50 x65 + 50 x66 + 45 x67 + 50 x68 + 55 x69 + 50 x7 + 60 x70
 + 50 x71 + 50 x72 + 50 x73 + 45 x74 + 45 x75 + 45 x76 + 45 x77 + 45 x78
 + 40 x79 + 45 x8 + 45 x80 + 50 x81 + 45 x82 + 50 x83 + 55 x84 + 55 x85
 + 55 x86 + 45 x87 + 55 x88 + 45 x89 + 55 x9 + 60 x90 + 65 x91 + 55 x92
 + 55 x93 + 50 x94 + 50 x95 + 65 x96 + 65 x97 + 55 x98 + 70 x99 <= 830
_C10: x161 + x162 + x163 + x164 + x165 + x166 + x167 + x168 + x169 + x170
 + x171 + x172 + x173 + x174 + x175 + x176 + x177 + x178 + x179 + x180 + x181
 + x182 + x183 + x184 + x185 + x186 + x187 + x461 <= 3
_C11: x374 + x375 + x376 + x377 + x379 + x380 + x381 + x382 + x383 + x384
 + x385 + x386 + x387 + x388 + x389 + x390 + x391 + x392 + x393 + x394 + x497
 <= 3
_C12: x100 + x101 + x102 + x103 + x104 + x105 + x108 + x109 + x110 + x112
 + x113 + x462 + x469 + x470 + x471 + x93 + x94 + x95 + x96 + x97 + x99 <= 3
_C13: x419 + x420 + x421 + x422 + x423 + x424 + x425 + x426 + x427 + x428
 + x429 + x430 + x431 + x432 + x433 + x434 + x435 + x436 + x467 <= 3
_C14: x134 + x135 + x136 + x137 + x138 + x139 + x140 + x141 + x142 + x143
 + x144 + x145 + x146 + x147 + x148 + x149 + x150 + x151 + x152 + x153 + x154
 + x155 + x156 + x157 + x158 + x159 + x160 + x463 <= 3
_C15: x239 + x240 + x241 + x242 + x243 + x244 + x245 + x246 + x247 + x248
 + x249 + x250 + x251 + x252 + x253 + x254 + x255 + x256 + x258 + x378 + x482
 + x483 + x491 + x492 <= 3
_C16: x188 + x189 + x190 + x191 + x192 + x193 + x194 + x195 + x196 + x197
 + x198 + x199 + x200 + x201 + x202 + x203 + x204 + x205 + x206 + x207 + x208
 + x209 + x210 + x211 + x257 + x472 + x473 <= 3
_C17: x327 + x328 + x329 + x330 + x331 + x332 + x334 + x335 + x336 + x337
 + x338 + x340 + x341 + x342 + x343 + x344 + x345 + x346 + x347 + x348 + x487
 + x496 + x98 <= 3
_C18: x212 + x213 + x214 + x215 + x216 + x217 + x218 + x219 + x220 + x221
 + x222 + x223 + x224 + x225 + x226 + x227 + x228 + x229 + x230 + x231 + x232
 + x233 + x234 + x235 + x236 + x237 + x238 + x474 <= 3
_C19: x349 + x350 + x351 + x352 + x353 + x354 + x355 + x356 + x357 + x358
 + x359 + x360 + x361 + x362 + x363 + x364 + x365 + x366 + x367 + x368 + x369
 + x370 + x371 + x372 + x373 + x484 <= 3
_C2: x0 + x1 + x114 + x115 + x134 + x135 + x136 + x161 + x162 + x188 + x189
 + x2 + x212 + x213 + x239 + x240 + x259 + x260 + x261 + x28 + x285 + x286
 + x29 + x30 + x304 + x305 + x327 + x328 + x349 + x350 + x374 + x375 + x395
 + x396 + x419 + x420 + x437 + x438 + x468 + x472 + x478 + x52 + x53 + x73
 + x74 + x93 + x94 + x95 = 1
_C20: x304 + x305 + x306 + x307 + x308 + x309 + x310 + x311 + x312 + x313
 + x314 + x315 + x316 + x317 + x318 + x319 + x320 + x321 + x322 + x323 + x324
 + x325 + x326 + x499 <= 3
_C21: x339 + x437 + x438 + x439 + x440 + x441 + x442 + x443 + x444 + x445
 + x446 + x447 + x448 + x449 + x450 + x451 + x452 + x453 + x454 + x455 + x456
 + x457 + x458 + x459 + x478 + x486 <= 3
_C22: x111 + x395 + x396 + x397 + x398 + x399 + x400 + x401 + x402 + x403
 + x404 + x405 + x406 + x407 + x408 + x409 + x410 + x411 + x412 + x413 + x414
 + x415 + x416 + x417 + x418 + x485 + x498 + x500 + x91 <= 3
_C23: x333 + x468 + x73 + x74 + x75 + x76 + x77 + x78 + x79 + x80 + x81 + x82
 + x83 + x84 + x85 + x86 + x87 + x88 + x89 + x90 + x92 <= 3
_C24: x28 + x29 + x30 + x31 + x32 + x33 + x34 + x35 + x36 + x37 + x38 + x39
 + x40 + x41 + x42 + x43 + x44 + x45 + x46 + x47 + x48 + x49 + x50 + x51 <= 3
_C25: x107 + x114 + x115 + x116 + x117 + x118 + x119 + x120 + x121 + x122
 + x123 + x124 + x125 + x126 + x127 + x128 + x129 + x130 + x131 + x132 + x133
 + x268 + x481 + x490 <= 3
_C3: x10 + x100 + x101 + x102 + x11 + x116 + x117 + x118 + x119 + x12 + x120
 + x121 + x122 + x123 + x137 + x138 + x139 + x140 + x141 + x142 + x143 + x144
 + x145 + x163 + x164 + x165 + x166 + x167 + x168 + x169 + x170 + x190 + x191
 + x192 + x193 + x194 + x195 + x196 + x197 + x214 + x215 + x216 + x217 + x218
 + x219 + x220 + x221 + x222 + x241 + x242 + x243 + x244 + x262 + x263 + x264
 + x265 + x266 + x267 + x268 + x269 + x270 + x271 + x272 + x287 + x288 + x289
 + x290 + x291 + x292 + x293 + x3 + x306 + x307 + x308 + x309 + x31 + x310
 + x311 + x312 + x313 + x314 + x32 + x329 + x33 + x330 + x331 + x332 + x333
 + x334 + x335 + x34 + x35 + x351 + x352 + x353 + x354 + x355 + x356 + x357
 + x36 + x37 + x376 + x377 + x378 + x379 + x380 + x381 + x382 + x397 + x398
 + x399 + x4 + x400 + x401 + x402 + x403 + x404 + x405 + x406 + x421 + x422
 + x423 + x424 + x439 + x440 + x441 + x442 + x443 + x444 + x445 + x446 + x460
 + x461 + x463 + x464 + x467 + x469 + x474 + x476 + x479 + x481 + x482 + x483
 + x484 + x493 + x497 + x5 + x54 + x55 + x56 + x57 + x58 + x59 + x6 + x60 + x7
 + x75 + x76 + x77 + x78 + x79 + x8 + x80 + x9 + x96 + x97 + x98 + x99 = 4
_C4: x103 + x104 + x105 + x106 + x107 + x108 + x109 + x110 + x111 + x124
 + x125 + x126 + x127 + x128 + x129 + x13 + x130 + x131 + x14 + x146 + x147
 + x148 + x149 + x15 + x150 + x151 + x152 + x153 + x154 + x155 + x156 + x157
 + x16 + x17 + x171 + x172 + x173 + x174 + x175 + x176 + x177 + x178 + x179
 + x18 + x180 + x181 + x182 + x183 + x19 + x198 + x199 + x20 + x200 + x201
 + x202 + x203 + x204 + x205 + x206 + x207 + x21 + x22 + x223 + x224 + x225
 + x226 + x227 + x228 + x229 + x23 + x230 + x231 + x232 + x233 + x245 + x246
 + x247 + x248 + x249 + x250 + x251 + x252 + x253 + x254 + x255 + x273 + x274
 + x275 + x276 + x277 + x278 + x279 + x280 + x281 + x282 + x294 + x295 + x296
 + x297 + x298 + x299 + x315 + x316 + x317 + x318 + x319 + x320 + x321 + x322
 + x323 + x336 + x337 + x338 + x339 + x340 + x341 + x342 + x343 + x344 + x345
 + x358 + x359 + x360 + x361 + x362 + x363 + x364 + x365 + x366 + x367 + x368
 + x369 + x38 + x383 + x384 + x385 + x386 + x387 + x388 + x389 + x39 + x390
 + x391 + x392 + x40 + x407 + x408 + x409 + x41 + x410 + x411 + x412 + x413
 + x414 + x415 + x42 + x425 + x426 + x427 + x428 + x429 + x43 + x430 + x431
 + x432 + x433 + x44 + x447 + x448 + x449 + x45 + x450 + x451 + x452 + x453
 + x454 + x455 + x46 + x462 + x465 + x466 + x470 + x473 + x475 + x477 + x480
 + x485 + x488 + x489 + x490 + x491 + x492 + x494 + x495 + x496 + x499 + x500
 + x61 + x62 + x63 + x64 + x65 + x66 + x67 + x68 + x69 + x81 + x82 + x83 + x84
 + x85 + x86 + x87 + x88 + x89 = 4
_C5: x112 + x113 + x132 + x133 + x158 + x159 + x160 + x184 + x185 + x186
 + x187 + x208 + x209 + x210 + x211 + x234 + x235 + x236 + x237 + x238 + x24
 + x25 + x256 + x257 + x258 + x26 + x27 + x283 + x284 + x300 + x301 + x302
 + x303 + x324 + x325 + x326 + x346 + x347 + x348 + x370 + x371 + x372 + x373
 + x393 + x394 + x416 + x417 + x418 + x434 + x435 + x436 + x456 + x457 + x458
 + x459 + x47 + x471 + x48 + x486 + x487 + x49 + x498 + x50 + x51 + x70 + x71
 + x72 + x90 + x91 + x92 = 2
_C6: x106 + x259 + x260 + x261 + x262 + x263 + x264 + x265 + x266 + x267
 + x269 + x270 + x271 + x272 + x273 + x274 + x275 + x276 + x277 + x278 + x279
 + x280 + x281 + x282 + x283 + x284 + x475 <= 3
_C7: x0 + x1 + x10 + x11 + x12 + x13 + x14 + x15 + x16 + x17 + x18 + x19 + x2
 + x20 + x21 + x22 + x23 + x24 + x25 + x26 + x27 + x3 + x4 + x479 + x488 + x5
 + x6 + x7 + x8 + x9 <= 3
_C8: x460 + x480 + x489 + x52 + x53 + x54 + x55 + x56 + x57 + x58 + x59 + x60
 + x61 + x62 + x63 + x64 + x65 + x66 + x67 + x68 + x69 + x70 + x71 + x72 <= 3
_C9: x285 + x286 + x287 + x288 + x289 + x290 + x291 + x292 + x293 + x294
 + x295 + x296 + x297 + x298 + x299 + x300 + x301 + x302 + x303 + x464 + x465
 + x466 + x476 + x477 + x493 + x494 + x495 <= 3
Binaries
x0
x1
x10
x100
x101
x102
x103
x104
x105
x106
x107
x108
x109
x11
x110
x111
x112
x113
x114
x115
x116
x117
x118
x119
x12
x120
x121
x122
x123
x124
x125
x126
x127
x128
x129
x13
x130
x131
x132
x133
x134
x135
x136
x137
x138
x139
x14
x140
x141
x142
x143
x144
x145
x146
x147
x148
x149
x15
x150
x151
x152
x153
x154
x155
x156
x157
x158
x159
x16
x160
x161
x162
x163
x164
x165
x166
x167
x168
x169
x17
x170
x171
x172
x173
x174
x175
x176
x177
x178
x179
x18
x180
x181
x182
x183
x184
x185
x186
x187
x188
x189
x19
x190
x191
x192
x193
x194
x195
x196
x197
x198
x199
x2
x20
x200
x201
x202
x203
x204
x205
x206
x207
x208
x209
x21
x210
x211
x212
x213
x214
x215
x216
x217
x218
x219
x22
x220
x221
x222
x223
x224
x225
x226
x227
x228
x229
x23
x230
x231
x232
x233
x234
x235
x236
x237
x238
x239
x24
x240
x241
x242
x243
x244
x245
x246
x247
x248
x249
x25
x250
x251
x252
x253
x254
x255
x256
x257
x258
x259
x26
x260
x261
x262
x263
x264
x265
x266
x267
x268
x269
x27
x270
x271
x272
x273
x274
x275
x276
x277
x278
x279
x28
x280
x281
x282
x283
x284
x285
x286
x287
x288
x289
x29
x290
x291
x292
x293
x294
x295
x296
x297
x298
x299
x3
x30
x300
x301
x302
x303
x304
x305
x306
x307
x308
x309
x31
x310
x311
x312
x313
x314
x315
x316
x317
x318
x319
x32
x320
x321
x322
x323
x324
x325
x326
x327
x328
x329
x33
x330
x331
x332
x333
x334
x335
x336
x337
x338
x339
x34
x340
x341
x342
x343
x344
x345
x346
x347
x348
x349
x35
x350
x351
x352
x353
x354
x355
x356
x357
x358
x359
x36
x360
x361
x362
x363
x364
x365
x366
x367
x368
x369
x37
x370
x371
x372
x373
x374
x375
x376
x377
x378
x379
x38
x380
x381
x382
x383
x384
x385
x386
x387
x388
x389
x39
x390
x391
x392
x393
x394
x395
x396
x397
x398
x399
x4
x40
x400
x401
x402
x403
x404
x405
x406
x407
x408
x409
x41
x410
x411
x412
x413
x414
x415
x416
x417
x418
x419
x42
x420
x421
x422
x423
x424
x425
x426
x427
x428
x429
x43
x430
x431
x432
x433
x434
x435
x436
x437
x438
x439
x44
x440
x441
x442
x443
x444
x445
x446
x447
x448
x449
x45
x450
x451
x452
x453
x454
x455
x456
x457
x458
x459
x46
x460
x461
x462
x463
x464
x465
x466
x467
x468
x469
x47
x470
x471
x472
x473
x474
x475
x476
x477
x478
x479
x48
x480
x481
x482
x483
x484
x485
x486
x487
x488
x489
x49
x490
x491
x492
x493
x494
x495
x496
x497
x498
x499
x5
x50
x500
x51
x52
x53
x54
x55
x56
x57
x58
x59
x6
x60
x61
x62
x63
x64
x65
x66
x67
x68
x69
x7
x70
x71
x72
x73
x74
x75
x76
x77
x78
x79
x8
x80
x81
x82
x83
x84
x85
x86
x87
x88
x89
x9
x90
x91
x92
x93
x94
x95
x96
x97
x98
x99
End
